31 5877
19 2194
54 4875
13 6868
90 3944
68 1350
99 4437
43 5623
94 3890
98 1997
25 4270
86 3927
11 7849
94 6945
90 6172
73 6877
52 5180
42 8696
16 4021
50 1784
54 8784
44 4672
64 9617
95 3273
15 6845
84 5153
82 4403
97 2929
88 5684
99 3751
37 2606
62 7706
20 9822
53 5547
65 6549
72 6638
70 4933
91 5844
40 7321
92 9491
